NAME : mar10_1000_1
COMMENT : Data set with 10 points
COMMENT : CIn-UFPE
COMMENT : Contributed by Marcelo Lacerda
TYPE : TSP
DIMENSION : 10
EDGE_WEIGHT_TYPE : EUC_2D
NODE_COORD_SECTION
1 519 874
2 259 490
3 812 985
4 954 147
5 546 59
6 327 793
7 389 767
8 43 655
9 883 655
10 843 646
EOF
